backend/data/formal_work/debug_axi/debug_axi_bmc/model/design_smt2.smt2
; SMT-LIBv2 description generated by Yosys 0.63+184 (git sha1 240439bdb-dirty, aarch64-apple-darwin23.5-clang++ 18.1.8 -fPIC -O3)
; yosys-smt2-module axi_formal_checker
(declare-sort |axi_formal_checker_s| 0)
(declare-fun |axi_formal_checker_is| (|axi_formal_checker_s|) Bool)
; yosys-smt2-witness {"offset": 0, "path": ["$auto$async2sync.cc:107:execute$58"], "smtname": 0, "smtoffset": 0, "type": "reg", "width": 1}
(declare-fun |axi_formal_checker#0| (|axi_formal_checker_s|) (_ BitVec 1)) ; $auto$async2sync.cc:107:execute$58
; yosys-smt2-register $auto$async2sync.cc:107:execute$58 1
(define-fun |axi_formal_checker_n $auto$async2sync.cc:107:execute$58| ((state |axi_formal_checker_s|)) Bool (= ((_ extract 0 0) (|axi_formal_checker#0| state)) #b1))
; yosys-smt2-witness {"offset": 0, "path": ["$auto$async2sync.cc:116:execute$62"], "smtname": 1, "smtoffset": 0, "type": "reg", "width": 1}
(declare-fun |axi_formal_checker#1| (|axi_formal_checker_s|) (_ BitVec 1)) ; $auto$async2sync.cc:116:execute$62
; yosys-smt2-register $auto$async2sync.cc:116:execute$62 1
(define-fun |axi_formal_checker_n $auto$async2sync.cc:116:execute$62| ((state |axi_formal_checker_s|)) Bool (= ((_ extract 0 0) (|axi_formal_checker#1| state)) #b1))
; yosys-smt2-anyinit axi_formal_checker#2 1 axi_formal_checker_monitor.sv:12.5-20.8
; yosys-smt2-witness {"offset": 0, "path": ["\\_va_assert_awready_triggered_1"], "smtname": 2, "smtoffset": 0, "type": "init", "width": 1}
(declare-fun |axi_formal_checker#2| (|axi_formal_checker_s|) (_ BitVec 1)) ; \_va_assert_awready_triggered_1
; yosys-smt2-register _va_assert_awready_triggered_1 1
; yosys-smt2-wire _va_assert_awready_triggered_1 1
(define-fun |axi_formal_checker_n _va_assert_awready_triggered_1| ((state |axi_formal_checker_s|)) Bool (= ((_ extract 0 0) (|axi_formal_checker#2| state)) #b1))
(declare-fun |axi_formal_checker#3| (|axi_formal_checker_s|) Bool) ; \awvalid
(define-fun |axi_formal_checker#4| ((state |axi_formal_checker_s|)) Bool (not (or  (|axi_formal_checker#3| state) false))) ; $logic_not$axi_formal_checker_monitor.sv:16$4_Y
(define-fun |axi_formal_checker#5| ((state |axi_formal_checker_s|)) Bool (and (or  (= ((_ extract 0 0) (|axi_formal_checker#2| state)) #b1) false) (or  (|axi_formal_checker#4| state) false))) ; $logic_and$axi_formal_checker_monitor.sv:16$5_Y
(define-fun |axi_formal_checker#6| ((state |axi_formal_checker_s|)) (_ BitVec 1) (ite (|axi_formal_checker#5| state) #b1 #b0)) ; $procmux$48_Y
(declare-fun |axi_formal_checker#7| (|axi_formal_checker_s|) (_ BitVec 1)) ; \rst_n
(define-fun |axi_formal_checker#8| ((state |axi_formal_checker_s|)) (_ BitVec 1) (ite (= ((_ extract 0 0) (|axi_formal_checker#7| state)) #b1) (|axi_formal_checker#6| state) #b0)) ; \assert_awready_EN
; yosys-smt2-wire assert_awready_EN 1
(define-fun |axi_formal_checker_n assert_awready_EN| ((state |axi_formal_checker_s|)) Bool (= ((_ extract 0 0) (|axi_formal_checker#8| state)) #b1))
(declare-fun |axi_formal_checker#9| (|axi_formal_checker_s|) Bool) ; \awready
; yosys-smt2-input awready 1
; yosys-smt2-wire awready 1
; yosys-smt2-witness {"offset": 0, "path": ["\\awready"], "smtname": "awready", "smtoffset": 0, "type": "input", "width": 1}
(define-fun |axi_formal_checker_n awready| ((state |axi_formal_checker_s|)) Bool (|axi_formal_checker#9| state))
; yosys-smt2-input awvalid 1
; yosys-smt2-wire awvalid 1
; yosys-smt2-witness {"offset": 0, "path": ["\\awvalid"], "smtname": "awvalid", "smtoffset": 0, "type": "input", "width": 1}
(define-fun |axi_formal_checker_n awvalid| ((state |axi_formal_checker_s|)) Bool (|axi_formal_checker#3| state))
(declare-fun |axi_formal_checker#10| (|axi_formal_checker_s|) Bool) ; \clk
; yosys-smt2-input clk 1
; yosys-smt2-wire clk 1
; yosys-smt2-clock clk posedge
; yosys-smt2-witness {"offset": 0, "path": ["\\clk"], "smtname": "clk", "smtoffset": 0, "type": "posedge", "width": 1}
; yosys-smt2-witness {"offset": 0, "path": ["\\clk"], "smtname": "clk", "smtoffset": 0, "type": "input", "width": 1}
(define-fun |axi_formal_checker_n clk| ((state |axi_formal_checker_s|)) Bool (|axi_formal_checker#10| state))
; yosys-smt2-input rst_n 1
; yosys-smt2-wire rst_n 1
; yosys-smt2-witness {"offset": 0, "path": ["\\rst_n"], "smtname": "rst_n", "smtoffset": 0, "type": "input", "width": 1}
(define-fun |axi_formal_checker_n rst_n| ((state |axi_formal_checker_s|)) Bool (= ((_ extract 0 0) (|axi_formal_checker#7| state)) #b1))
(define-fun |axi_formal_checker#11| ((state |axi_formal_checker_s|)) (_ BitVec 1) (bvnot (ite (|axi_formal_checker#10| state) #b1 #b0))) ; $auto$rtlil.cc:3255:Not$85
; yosys-smt2-assume 0 $auto$formalff.cc:987:execute$86
(define-fun |axi_formal_checker_u 0| ((state |axi_formal_checker_s|)) Bool (or (= ((_ extract 0 0) (|axi_formal_checker#11| state)) #b1) (not true))) ; $auto$formalff.cc:987:execute$86
; yosys-smt2-assert 0 assert_awready
(define-fun |axi_formal_checker_a 0| ((state |axi_formal_checker_s|)) Bool (or (= ((_ extract 0 0) (|axi_formal_checker#1| state)) #b1) (not (= ((_ extract 0 0) (|axi_formal_checker#0| state)) #b1)))) ; assert_awready
(define-fun |axi_formal_checker#12| ((state |axi_formal_checker_s|)) Bool (not (or  (|axi_formal_checker#9| state) false))) ; $logic_not$axi_formal_checker_monitor.sv:18$8_Y
(define-fun |axi_formal_checker#13| ((state |axi_formal_checker_s|)) Bool (and (or  (|axi_formal_checker#3| state) false) (or  (|axi_formal_checker#12| state) false))) ; $logic_and$axi_formal_checker_monitor.sv:18$9_Y
(define-fun |axi_formal_checker#14| ((state |axi_formal_checker_s|)) (_ BitVec 1) (ite (= ((_ extract 0 0) (|axi_formal_checker#7| state)) #b1) (ite (|axi_formal_checker#13| state) #b1 #b0) #b0)) ; $0\_va_assert_awready_triggered_1[0:0]
(define-fun |axi_formal_checker_a| ((state |axi_formal_checker_s|)) Bool 
  (|axi_formal_checker_a 0| state)
)
(define-fun |axi_formal_checker_u| ((state |axi_formal_checker_s|)) Bool 
  (|axi_formal_checker_u 0| state)
)
(define-fun |axi_formal_checker_i| ((state |axi_formal_checker_s|)) Bool (and
  (= (= ((_ extract 0 0) (|axi_formal_checker#0| state)) #b1) false) ; $auto$async2sync.cc:107:execute$58
  (= (= ((_ extract 0 0) (|axi_formal_checker#1| state)) #b1) true) ; $auto$async2sync.cc:116:execute$62
))
(define-fun |axi_formal_checker_h| ((state |axi_formal_checker_s|)) Bool true)
(define-fun |axi_formal_checker_t| ((state |axi_formal_checker_s|) (next_state |axi_formal_checker_s|)) Bool (and
  (= (|axi_formal_checker#14| state) (|axi_formal_checker#2| next_state)) ; $procdff$56 \_va_assert_awready_triggered_1
  (= #b0 (|axi_formal_checker#1| next_state)) ; $auto$async2sync.cc:118:execute$63 $auto$async2sync.cc:116:execute$62
  (= (|axi_formal_checker#8| state) (|axi_formal_checker#0| next_state)) ; $auto$async2sync.cc:110:execute$60 $auto$async2sync.cc:107:execute$58
)) ; end of module axi_formal_checker
; yosys-smt2-module axi_slave
(declare-sort |axi_slave_s| 0)
(declare-fun |axi_slave_is| (|axi_slave_s|) Bool)
; yosys-smt2-anyinit axi_slave#0 1 axi_slave.sv:9.5-23.8
; yosys-smt2-witness {"offset": 0, "path": ["\\awready"], "smtname": 0, "smtoffset": 0, "type": "init", "width": 1}
(declare-fun |axi_slave#0| (|axi_slave_s|) (_ BitVec 1)) ; \awready
; yosys-smt2-output awready 1
; yosys-smt2-register awready 1
; yosys-smt2-wire awready 1
(define-fun |axi_slave_n awready| ((state |axi_slave_s|)) Bool (= ((_ extract 0 0) (|axi_slave#0| state)) #b1))
(declare-fun |axi_slave#1| (|axi_slave_s|) Bool) ; \awvalid
; yosys-smt2-input awvalid 1
; yosys-smt2-wire awvalid 1
; yosys-smt2-witness {"offset": 0, "path": ["\\awvalid"], "smtname": "awvalid", "smtoffset": 0, "type": "input", "width": 1}
(define-fun |axi_slave_n awvalid| ((state |axi_slave_s|)) Bool (|axi_slave#1| state))
(declare-fun |axi_slave#2| (|axi_slave_s|) Bool) ; \clk
; yosys-smt2-input clk 1
; yosys-smt2-wire clk 1
; yosys-smt2-clock clk posedge
; yosys-smt2-witness {"offset": 0, "path": ["\\clk"], "smtname": "clk", "smtoffset": 0, "type": "posedge", "width": 1}
; yosys-smt2-witness {"offset": 0, "path": ["\\clk"], "smtname": "clk", "smtoffset": 0, "type": "input", "width": 1}
(define-fun |axi_slave_n clk| ((state |axi_slave_s|)) Bool (|axi_slave#2| state))
; yosys-smt2-anyinit axi_slave#3 4 axi_slave.sv:9.5-23.8
; yosys-smt2-witness {"offset": 0, "path": ["\\counter"], "smtname": 3, "smtoffset": 0, "type": "init", "width": 4}
(declare-fun |axi_slave#3| (|axi_slave_s|) (_ BitVec 4)) ; \counter
; yosys-smt2-register counter 4
; yosys-smt2-wire counter 4
(define-fun |axi_slave_n counter| ((state |axi_slave_s|)) (_ BitVec 4) (|axi_slave#3| state))
(declare-fun |axi_slave#4| (|axi_slave_s|) Bool) ; \rst_n
; yosys-smt2-input rst_n 1
; yosys-smt2-wire rst_n 1
; yosys-smt2-witness {"offset": 0, "path": ["\\rst_n"], "smtname": "rst_n", "smtoffset": 0, "type": "input", "width": 1}
(define-fun |axi_slave_n rst_n| ((state |axi_slave_s|)) Bool (|axi_slave#4| state))
(define-fun |axi_slave#5| ((state |axi_slave_s|)) (_ BitVec 1) (bvnot (ite (|axi_slave#2| state) #b1 #b0))) ; $auto$rtlil.cc:3255:Not$88
; yosys-smt2-assume 0 $auto$formalff.cc:987:execute$89
(define-fun |axi_slave_u 0| ((state |axi_slave_s|)) Bool (or (= ((_ extract 0 0) (|axi_slave#5| state)) #b1) (not true))) ; $auto$formalff.cc:987:execute$89
(define-fun |axi_slave#6| ((state |axi_slave_s|)) (_ BitVec 4) (bvadd (|axi_slave#3| state) #b0001)) ; $add$axi_slave.sv:15$21_Y
(define-fun |axi_slave#7| ((state |axi_slave_s|)) Bool (not (or  (= ((_ extract 0 0) (|axi_slave#0| state)) #b1) false))) ; $logic_not$axi_slave.sv:14$19_Y
(define-fun |axi_slave#8| ((state |axi_slave_s|)) Bool (and (or  (|axi_slave#1| state) false) (or  (|axi_slave#7| state) false))) ; $logic_and$axi_slave.sv:14$20_Y
(define-fun |axi_slave#9| ((state |axi_slave_s|)) (_ BitVec 4) (ite (|axi_slave#8| state) (|axi_slave#6| state) #b0000)) ; $procmux$24_Y
(define-fun |axi_slave#10| ((state |axi_slave_s|)) (_ BitVec 4) (ite (|axi_slave#4| state) (|axi_slave#9| state) #b0000)) ; $0\counter[3:0]
(define-fun |axi_slave#11| ((state |axi_slave_s|)) Bool (bvuge (|axi_slave#3| state) #b0011)) ; $ge$axi_slave.sv:16$22_Y
(define-fun |axi_slave#12| ((state |axi_slave_s|)) (_ BitVec 1) (ite (|axi_slave#11| state) #b1 (|axi_slave#0| state))) ; $procmux$30_Y
(define-fun |axi_slave#13| ((state |axi_slave_s|)) (_ BitVec 1) (ite (|axi_slave#8| state) (|axi_slave#12| state) #b0)) ; $procmux$32_Y
(define-fun |axi_slave#14| ((state |axi_slave_s|)) (_ BitVec 1) (ite (|axi_slave#4| state) (|axi_slave#13| state) #b0)) ; $0\awready[0:0]
(define-fun |axi_slave_a| ((state |axi_slave_s|)) Bool true)
(define-fun |axi_slave_u| ((state |axi_slave_s|)) Bool 
  (|axi_slave_u 0| state)
)
(define-fun |axi_slave_i| ((state |axi_slave_s|)) Bool true)
(define-fun |axi_slave_h| ((state |axi_slave_s|)) Bool true)
(define-fun |axi_slave_t| ((state |axi_slave_s|) (next_state |axi_slave_s|)) Bool (and
  (= (|axi_slave#10| state) (|axi_slave#3| next_state)) ; $procdff$54 \counter
  (= (|axi_slave#14| state) (|axi_slave#0| next_state)) ; $procdff$53 \awready
)) ; end of module axi_slave
; yosys-smt2-module formal_wrapper
(declare-sort |formal_wrapper_s| 0)
(declare-fun |formal_wrapper_is| (|formal_wrapper_s|) Bool)
; yosys-smt2-cell axi_slave u_dut
; yosys-smt2-witness {"path": ["\\u_dut"], "smtname": "u_dut", "type": "cell"}
(declare-fun |formal_wrapper#0| (|formal_wrapper_s|) Bool) ; \awready
(declare-fun |formal_wrapper_h u_dut| (|formal_wrapper_s|) |axi_slave_s|)
; yosys-smt2-wire awready 1
(define-fun |formal_wrapper_n awready| ((state |formal_wrapper_s|)) Bool (|formal_wrapper#0| state))
; yosys-smt2-anyseq formal_wrapper#1 1 formal_wrapper.sv:7.23-7.30 awvalid
; yosys-smt2-witness {"offset": 0, "path": ["\\awvalid"], "smtname": 1, "smtoffset": 0, "type": "seq", "width": 1}
(declare-fun |formal_wrapper#1| (|formal_wrapper_s|) (_ BitVec 1)) ; \awvalid
; yosys-smt2-wire awvalid 1
(define-fun |formal_wrapper_n awvalid| ((state |formal_wrapper_s|)) Bool (= ((_ extract 0 0) (|formal_wrapper#1| state)) #b1))
(declare-fun |formal_wrapper#2| (|formal_wrapper_s|) Bool) ; \clk
; yosys-smt2-input clk 1
; yosys-smt2-wire clk 1
; yosys-smt2-clock clk posedge
; yosys-smt2-witness {"offset": 0, "path": ["\\clk"], "smtname": "clk", "smtoffset": 0, "type": "posedge", "width": 1}
; yosys-smt2-witness {"offset": 0, "path": ["\\clk"], "smtname": "clk", "smtoffset": 0, "type": "input", "width": 1}
(define-fun |formal_wrapper_n clk| ((state |formal_wrapper_s|)) Bool (|formal_wrapper#2| state))
(declare-fun |formal_wrapper#3| (|formal_wrapper_s|) Bool) ; \rst_n
; yosys-smt2-input rst_n 1
; yosys-smt2-wire rst_n 1
; yosys-smt2-witness {"offset": 0, "path": ["\\rst_n"], "smtname": "rst_n", "smtoffset": 0, "type": "input", "width": 1}
(define-fun |formal_wrapper_n rst_n| ((state |formal_wrapper_s|)) Bool (|formal_wrapper#3| state))
(define-fun |formal_wrapper#4| ((state |formal_wrapper_s|)) (_ BitVec 1) (bvnot (ite (|formal_wrapper#2| state) #b1 #b0))) ; $auto$rtlil.cc:3255:Not$91
; yosys-smt2-assume 0 $auto$formalff.cc:987:execute$92
(define-fun |formal_wrapper_u 0| ((state |formal_wrapper_s|)) Bool (or (= ((_ extract 0 0) (|formal_wrapper#4| state)) #b1) (not true))) ; $auto$formalff.cc:987:execute$92
; yosys-smt2-cell axi_formal_checker u_monitor
; yosys-smt2-witness {"path": ["\\u_monitor"], "smtname": "u_monitor", "type": "cell"}
(declare-fun |formal_wrapper_h u_monitor| (|formal_wrapper_s|) |axi_formal_checker_s|)
(define-fun |formal_wrapper_a| ((state |formal_wrapper_s|)) Bool (and
  (|axi_formal_checker_a| (|formal_wrapper_h u_monitor| state))
  (|axi_slave_a| (|formal_wrapper_h u_dut| state))
))
(define-fun |formal_wrapper_u| ((state |formal_wrapper_s|)) Bool (and
  (|formal_wrapper_u 0| state)
  (|axi_formal_checker_u| (|formal_wrapper_h u_monitor| state))
  (|axi_slave_u| (|formal_wrapper_h u_dut| state))
))
(define-fun |formal_wrapper_i| ((state |formal_wrapper_s|)) Bool (and
  (|axi_formal_checker_i| (|formal_wrapper_h u_monitor| state))
  (|axi_slave_i| (|formal_wrapper_h u_dut| state))
))
(define-fun |formal_wrapper_h| ((state |formal_wrapper_s|)) Bool (and
  (= (|formal_wrapper_is| state) (|axi_formal_checker_is| (|formal_wrapper_h u_monitor| state)))
  (= (|formal_wrapper#0| state) (|axi_formal_checker_n awready| (|formal_wrapper_h u_monitor| state))) ; axi_formal_checker.awready
  (= (= ((_ extract 0 0) (|formal_wrapper#1| state)) #b1) (|axi_formal_checker_n awvalid| (|formal_wrapper_h u_monitor| state))) ; axi_formal_checker.awvalid
  (= (|formal_wrapper#2| state) (|axi_formal_checker_n clk| (|formal_wrapper_h u_monitor| state))) ; axi_formal_checker.clk
  (= (|formal_wrapper#3| state) (|axi_formal_checker_n rst_n| (|formal_wrapper_h u_monitor| state))) ; axi_formal_checker.rst_n
  (= (|formal_wrapper_is| state) (|axi_slave_is| (|formal_wrapper_h u_dut| state)))
  (= (|formal_wrapper#0| state) (|axi_slave_n awready| (|formal_wrapper_h u_dut| state))) ; axi_slave.awready
  (= (= ((_ extract 0 0) (|formal_wrapper#1| state)) #b1) (|axi_slave_n awvalid| (|formal_wrapper_h u_dut| state))) ; axi_slave.awvalid
  (= (|formal_wrapper#2| state) (|axi_slave_n clk| (|formal_wrapper_h u_dut| state))) ; axi_slave.clk
  (= (|formal_wrapper#3| state) (|axi_slave_n rst_n| (|formal_wrapper_h u_dut| state))) ; axi_slave.rst_n
  (|axi_formal_checker_h| (|formal_wrapper_h u_monitor| state))
  (|axi_slave_h| (|formal_wrapper_h u_dut| state))
))
(define-fun |formal_wrapper_t| ((state |formal_wrapper_s|) (next_state |formal_wrapper_s|)) Bool (and
  (|axi_formal_checker_t| (|formal_wrapper_h u_monitor| state) (|formal_wrapper_h u_monitor| next_state))
  (|axi_slave_t| (|formal_wrapper_h u_dut| state) (|formal_wrapper_h u_dut| next_state))
)) ; end of module formal_wrapper
; yosys-smt2-topmod formal_wrapper
; end of yosys output
